NAME: 600.vrp-C121-R5
TYPE: SoftCluVRP
DIMENSION:  601 
VEHICLES:  62 
GVRP_SETS:  121 
CAPACITY:  900 
EDGE_WEIGHT_TYPE: EUC_2D
NODE_COORD_SECTION 
1 0.000000 0.000000
2 30.000000 0.000000
3 29.835699 3.135900
4 29.344400 6.237400
5 28.531700 9.270500
6 27.406401 12.202100
7 25.980801 15.000000
8 24.270500 17.633600
9 22.294300 20.073900
10 20.073900 22.294300
11 17.633600 24.270500
12 15.000000 25.980801
13 12.202100 27.406401
14 9.270500 28.531700
15 6.237400 29.344400
16 3.135900 29.835699
17 0.000000 30.000000
18 -3.135900 29.835699
19 -6.237400 29.344400
20 -9.270500 28.531700
21 -12.202100 27.406401
22 -15.000000 25.980801
23 -17.633600 24.270500
24 -20.073900 22.294300
25 -22.294300 20.073900
26 -24.270500 17.633600
27 -25.980801 15.000000
28 -27.406401 12.202100
29 -28.531700 9.270500
30 -29.344400 6.237400
31 -29.835699 3.135900
32 -30.000000 0.000000
33 -29.835699 -3.135900
34 -29.344400 -6.237400
35 -28.531700 -9.270500
36 -27.406401 -12.202100
37 -25.980801 -15.000000
38 -24.270500 -17.633600
39 -22.294300 -20.073900
40 -20.073900 -22.294300
41 -17.633600 -24.270500
42 -15.000000 -25.980801
43 -12.202100 -27.406401
44 -9.270500 -28.531700
45 -6.237400 -29.344400
46 -3.135900 -29.835699
47 -0.000000 -30.000000
48 3.135900 -29.835699
49 6.237400 -29.344400
50 9.270500 -28.531700
51 12.202100 -27.406401
52 15.000000 -25.980801
53 17.633600 -24.270500
54 20.073900 -22.294300
55 22.294300 -20.073900
56 24.270500 -17.633600
57 25.980801 -15.000000
58 27.406401 -12.202100
59 28.531700 -9.270500
60 29.344400 -6.237400
61 29.835699 -3.135900
62 60.000000 0.000000
63 59.671299 6.271700
64 58.688900 12.474700
65 57.063400 18.541000
66 54.812698 24.404200
67 51.961498 30.000000
68 48.541000 35.267101
69 44.588699 40.147800
70 40.147800 44.588699
71 35.267101 48.541000
72 30.000000 51.961498
73 24.404200 54.812698
74 18.541000 57.063400
75 12.474700 58.688900
76 6.271700 59.671299
77 0.000000 60.000000
78 -6.271700 59.671299
79 -12.474700 58.688900
80 -18.541000 57.063400
81 -24.404200 54.812698
82 -30.000000 51.961498
83 -35.267101 48.541000
84 -40.147800 44.588699
85 -44.588699 40.147800
86 -48.541000 35.267101
87 -51.961498 30.000000
88 -54.812698 24.404200
89 -57.063400 18.541000
90 -58.688900 12.474700
91 -59.671299 6.271700
92 -60.000000 0.000000
93 -59.671299 -6.271700
94 -58.688900 -12.474700
95 -57.063400 -18.541000
96 -54.812698 -24.404200
97 -51.961498 -30.000000
98 -48.541000 -35.267101
99 -44.588699 -40.147800
100 -40.147800 -44.588699
101 -35.267101 -48.541000
102 -30.000000 -51.961498
103 -24.404200 -54.812698
104 -18.541000 -57.063400
105 -12.474700 -58.688900
106 -6.271700 -59.671299
107 -0.000000 -60.000000
108 6.271700 -59.671299
109 12.474700 -58.688900
110 18.541000 -57.063400
111 24.404200 -54.812698
112 30.000000 -51.961498
113 35.267101 -48.541000
114 40.147800 -44.588699
115 44.588699 -40.147800
116 48.541000 -35.267101
117 51.961498 -30.000000
118 54.812698 -24.404200
119 57.063400 -18.541000
120 58.688900 -12.474700
121 59.671299 -6.271700
122 90.000000 0.000000
123 89.507004 9.407600
124 88.033302 18.712099
125 85.595100 27.811501
126 82.219101 36.606300
127 77.942299 45.000000
128 72.811501 52.900700
129 66.883003 60.221802
130 60.221802 66.883003
131 52.900700 72.811501
132 45.000000 77.942299
133 36.606300 82.219101
134 27.811501 85.595100
135 18.712099 88.033302
136 9.407600 89.507004
137 0.000000 90.000000
138 -9.407600 89.507004
139 -18.712099 88.033302
140 -27.811501 85.595100
141 -36.606300 82.219101
142 -45.000000 77.942299
143 -52.900700 72.811501
144 -60.221802 66.883003
145 -66.883003 60.221802
146 -72.811501 52.900700
147 -77.942299 45.000000
148 -82.219101 36.606300
149 -85.595100 27.811501
150 -88.033302 18.712099
151 -89.507004 9.407600
152 -90.000000 0.000000
153 -89.507004 -9.407600
154 -88.033302 -18.712099
155 -85.595100 -27.811501
156 -82.219101 -36.606300
157 -77.942299 -45.000000
158 -72.811501 -52.900700
159 -66.883003 -60.221802
160 -60.221802 -66.883003
161 -52.900700 -72.811501
162 -45.000000 -77.942299
163 -36.606300 -82.219101
164 -27.811501 -85.595100
165 -18.712099 -88.033302
166 -9.407600 -89.507004
167 -0.000000 -90.000000
168 9.407600 -89.507004
169 18.712099 -88.033302
170 27.811501 -85.595100
171 36.606300 -82.219101
172 45.000000 -77.942299
173 52.900700 -72.811501
174 60.221802 -66.883003
175 66.883003 -60.221802
176 72.811501 -52.900700
177 77.942299 -45.000000
178 82.219101 -36.606300
179 85.595100 -27.811501
180 88.033302 -18.712099
181 89.507004 -9.407600
182 120.000000 0.000000
183 119.342598 12.543400
184 117.377701 24.949400
185 114.126801 37.082001
186 109.625504 48.808399
187 103.922997 60.000000
188 97.082001 70.534203
189 89.177399 80.295700
190 80.295700 89.177399
191 70.534203 97.082001
192 60.000000 103.922997
193 48.808399 109.625504
194 37.082001 114.126801
195 24.949400 117.377701
196 12.543400 119.342598
197 0.000000 120.000000
198 -12.543400 119.342598
199 -24.949400 117.377701
200 -37.082001 114.126801
201 -48.808399 109.625504
202 -60.000000 103.922997
203 -70.534203 97.082001
204 -80.295700 89.177399
205 -89.177399 80.295700
206 -97.082001 70.534203
207 -103.922997 60.000000
208 -109.625504 48.808399
209 -114.126801 37.082001
210 -117.377701 24.949400
211 -119.342598 12.543400
212 -120.000000 0.000000
213 -119.342598 -12.543400
214 -117.377701 -24.949400
215 -114.126801 -37.082001
216 -109.625504 -48.808399
217 -103.922997 -60.000000
218 -97.082001 -70.534203
219 -89.177399 -80.295700
220 -80.295700 -89.177399
221 -70.534203 -97.082001
222 -60.000000 -103.922997
223 -48.808399 -109.625504
224 -37.082001 -114.126801
225 -24.949400 -117.377701
226 -12.543400 -119.342598
227 -0.000000 -120.000000
228 12.543400 -119.342598
229 24.949400 -117.377701
230 37.082001 -114.126801
231 48.808399 -109.625504
232 60.000000 -103.922997
233 70.534203 -97.082001
234 80.295700 -89.177399
235 89.177399 -80.295700
236 97.082001 -70.534203
237 103.922997 -60.000000
238 109.625504 -48.808399
239 114.126801 -37.082001
240 117.377701 -24.949400
241 119.342598 -12.543400
242 150.000000 0.000000
243 149.178299 15.679300
244 146.722107 31.186800
245 142.658493 46.352501
246 137.031799 61.010502
247 129.903793 75.000000
248 121.352501 88.167801
249 111.471703 100.369598
250 100.369598 111.471703
251 88.167801 121.352501
252 75.000000 129.903793
253 61.010502 137.031799
254 46.352501 142.658493
255 31.186800 146.722107
256 15.679300 149.178299
257 0.000000 150.000000
258 -15.679300 149.178299
259 -31.186800 146.722107
260 -46.352501 142.658493
261 -61.010502 137.031799
262 -75.000000 129.903793
263 -88.167801 121.352501
264 -100.369598 111.471703
265 -111.471703 100.369598
266 -121.352501 88.167801
267 -129.903793 75.000000
268 -137.031799 61.010502
269 -142.658493 46.352501
270 -146.722107 31.186800
271 -149.178299 15.679300
272 -150.000000 0.000000
273 -149.178299 -15.679300
274 -146.722107 -31.186800
275 -142.658493 -46.352501
276 -137.031799 -61.010502
277 -129.903793 -75.000000
278 -121.352501 -88.167801
279 -111.471703 -100.369598
280 -100.369598 -111.471703
281 -88.167801 -121.352501
282 -75.000000 -129.903793
283 -61.010502 -137.031799
284 -46.352501 -142.658493
285 -31.186800 -146.722107
286 -15.679300 -149.178299
287 -0.000000 -150.000000
288 15.679300 -149.178299
289 31.186800 -146.722107
290 46.352501 -142.658493
291 61.010502 -137.031799
292 75.000000 -129.903793
293 88.167801 -121.352501
294 100.369598 -111.471703
295 111.471703 -100.369598
296 121.352501 -88.167801
297 129.903793 -75.000000
298 137.031799 -61.010502
299 142.658493 -46.352501
300 146.722107 -31.186800
301 149.178299 -15.679300
302 180.000000 0.000000
303 179.013901 18.815100
304 176.066605 37.424099
305 171.190201 55.623100
306 164.438202 73.212601
307 155.884598 90.000000
308 145.623093 105.801300
309 133.766098 120.443497
310 120.443497 133.766098
311 105.801300 145.623093
312 90.000000 155.884598
313 73.212601 164.438202
314 55.623100 171.190201
315 37.424099 176.066605
316 18.815100 179.013901
317 0.000000 180.000000
318 -18.815100 179.013901
319 -37.424099 176.066605
320 -55.623100 171.190201
321 -73.212601 164.438202
322 -90.000000 155.884598
323 -105.801300 145.623093
324 -120.443497 133.766098
325 -133.766098 120.443497
326 -145.623093 105.801300
327 -155.884598 90.000000
328 -164.438202 73.212601
329 -171.190201 55.623100
330 -176.066605 37.424099
331 -179.013901 18.815100
332 -180.000000 0.000000
333 -179.013901 -18.815100
334 -176.066605 -37.424099
335 -171.190201 -55.623100
336 -164.438202 -73.212601
337 -155.884598 -90.000000
338 -145.623093 -105.801300
339 -133.766098 -120.443497
340 -120.443497 -133.766098
341 -105.801300 -145.623093
342 -90.000000 -155.884598
343 -73.212601 -164.438202
344 -55.623100 -171.190201
345 -37.424099 -176.066605
346 -18.815100 -179.013901
347 -0.000000 -180.000000
348 18.815100 -179.013901
349 37.424099 -176.066605
350 55.623100 -171.190201
351 73.212601 -164.438202
352 90.000000 -155.884598
353 105.801300 -145.623093
354 120.443497 -133.766098
355 133.766098 -120.443497
356 145.623093 -105.801300
357 155.884598 -90.000000
358 164.438202 -73.212601
359 171.190201 -55.623100
360 176.066605 -37.424099
361 179.013901 -18.815100
362 210.000000 0.000000
363 208.849594 21.951000
364 205.410995 43.661499
365 199.721893 64.893600
366 191.844498 85.414703
367 181.865295 105.000000
368 169.893600 123.434898
369 156.060394 140.517395
370 140.517395 156.060394
371 123.434898 169.893600
372 105.000000 181.865295
373 85.414703 191.844498
374 64.893600 199.721893
375 43.661499 205.410995
376 21.951000 208.849594
377 0.000000 210.000000
378 -21.951000 208.849594
379 -43.661499 205.410995
380 -64.893600 199.721893
381 -85.414703 191.844498
382 -105.000000 181.865295
383 -123.434898 169.893600
384 -140.517395 156.060394
385 -156.060394 140.517395
386 -169.893600 123.434898
387 -181.865295 105.000000
388 -191.844498 85.414703
389 -199.721893 64.893600
390 -205.410995 43.661499
391 -208.849594 21.951000
392 -210.000000 0.000000
393 -208.849594 -21.951000
394 -205.410995 -43.661499
395 -199.721893 -64.893600
396 -191.844498 -85.414703
397 -181.865295 -105.000000
398 -169.893600 -123.434898
399 -156.060394 -140.517395
400 -140.517395 -156.060394
401 -123.434898 -169.893600
402 -105.000000 -181.865295
403 -85.414703 -191.844498
404 -64.893600 -199.721893
405 -43.661499 -205.410995
406 -21.951000 -208.849594
407 -0.000000 -210.000000
408 21.951000 -208.849594
409 43.661499 -205.410995
410 64.893600 -199.721893
411 85.414703 -191.844498
412 105.000000 -181.865295
413 123.434898 -169.893600
414 140.517395 -156.060394
415 156.060394 -140.517395
416 169.893600 -123.434898
417 181.865295 -105.000000
418 191.844498 -85.414703
419 199.721893 -64.893600
420 205.410995 -43.661499
421 208.849594 -21.951000
422 240.000000 0.000000
423 238.685303 25.086800
424 234.755402 49.898800
425 228.253601 74.164101
426 219.250900 97.616798
427 207.846100 120.000000
428 194.164093 141.068497
429 178.354797 160.591293
430 160.591293 178.354797
431 141.068497 194.164093
432 120.000000 207.846100
433 97.616798 219.250900
434 74.164101 228.253601
435 49.898800 234.755402
436 25.086800 238.685303
437 0.000000 240.000000
438 -25.086800 238.685303
439 -49.898800 234.755402
440 -74.164101 228.253601
441 -97.616798 219.250900
442 -120.000000 207.846100
443 -141.068497 194.164093
444 -160.591293 178.354797
445 -178.354797 160.591293
446 -194.164093 141.068497
447 -207.846100 120.000000
448 -219.250900 97.616798
449 -228.253601 74.164101
450 -234.755402 49.898800
451 -238.685303 25.086800
452 -240.000000 0.000000
453 -238.685303 -25.086800
454 -234.755402 -49.898800
455 -228.253601 -74.164101
456 -219.250900 -97.616798
457 -207.846100 -120.000000
458 -194.164093 -141.068497
459 -178.354797 -160.591293
460 -160.591293 -178.354797
461 -141.068497 -194.164093
462 -120.000000 -207.846100
463 -97.616798 -219.250900
464 -74.164101 -228.253601
465 -49.898800 -234.755402
466 -25.086800 -238.685303
467 -0.000000 -240.000000
468 25.086800 -238.685303
469 49.898800 -234.755402
470 74.164101 -228.253601
471 97.616798 -219.250900
472 120.000000 -207.846100
473 141.068497 -194.164093
474 160.591293 -178.354797
475 178.354797 -160.591293
476 194.164093 -141.068497
477 207.846100 -120.000000
478 219.250900 -97.616798
479 228.253601 -74.164101
480 234.755402 -49.898800
481 238.685303 -25.086800
482 270.000000 0.000000
483 268.520905 28.222700
484 264.099915 56.136200
485 256.785309 83.434601
486 246.657303 109.818901
487 233.826904 135.000000
488 218.434601 158.701996
489 200.649094 180.665298
490 180.665298 200.649094
491 158.701996 218.434601
492 135.000000 233.826904
493 109.818901 246.657303
494 83.434601 256.785309
495 56.136200 264.099915
496 28.222700 268.520905
497 0.000000 270.000000
498 -28.222700 268.520905
499 -56.136200 264.099915
500 -83.434601 256.785309
501 -109.818901 246.657303
502 -135.000000 233.826904
503 -158.701996 218.434601
504 -180.665298 200.649094
505 -200.649094 180.665298
506 -218.434601 158.701996
507 -233.826904 135.000000
508 -246.657303 109.818901
509 -256.785309 83.434601
510 -264.099915 56.136200
511 -268.520905 28.222700
512 -270.000000 0.000000
513 -268.520905 -28.222700
514 -264.099915 -56.136200
515 -256.785309 -83.434601
516 -246.657303 -109.818901
517 -233.826904 -135.000000
518 -218.434601 -158.701996
519 -200.649094 -180.665298
520 -180.665298 -200.649094
521 -158.701996 -218.434601
522 -135.000000 -233.826904
523 -109.818901 -246.657303
524 -83.434601 -256.785309
525 -56.136200 -264.099915
526 -28.222700 -268.520905
527 -0.000000 -270.000000
528 28.222700 -268.520905
529 56.136200 -264.099915
530 83.434601 -256.785309
531 109.818901 -246.657303
532 135.000000 -233.826904
533 158.701996 -218.434601
534 180.665298 -200.649094
535 200.649094 -180.665298
536 218.434601 -158.701996
537 233.826904 -135.000000
538 246.657303 -109.818901
539 256.785309 -83.434601
540 264.099915 -56.136200
541 268.520905 -28.222700
542 300.000000 0.000000
543 298.356598 31.358500
544 293.444305 62.373501
545 285.316986 92.705101
546 274.063599 122.021004
547 259.807587 150.000000
548 242.705093 176.335602
549 222.943405 200.739197
550 200.739197 222.943405
551 176.335602 242.705093
552 150.000000 259.807587
553 122.021004 274.063599
554 92.705101 285.316986
555 62.373501 293.444305
556 31.358500 298.356598
557 0.000000 300.000000
558 -31.358500 298.356598
559 -62.373501 293.444305
560 -92.705101 285.316986
561 -122.021004 274.063599
562 -150.000000 259.807587
563 -176.335602 242.705093
564 -200.739197 222.943405
565 -222.943405 200.739197
566 -242.705093 176.335602
567 -259.807587 150.000000
568 -274.063599 122.021004
569 -285.316986 92.705101
570 -293.444305 62.373501
571 -298.356598 31.358500
572 -300.000000 0.000000
573 -298.356598 -31.358500
574 -293.444305 -62.373501
575 -285.316986 -92.705101
576 -274.063599 -122.021004
577 -259.807587 -150.000000
578 -242.705093 -176.335602
579 -222.943405 -200.739197
580 -200.739197 -222.943405
581 -176.335602 -242.705093
582 -150.000000 -259.807587
583 -122.021004 -274.063599
584 -92.705101 -285.316986
585 -62.373501 -293.444305
586 -31.358500 -298.356598
587 -0.000000 -300.000000
588 31.358500 -298.356598
589 62.373501 -293.444305
590 92.705101 -285.316986
591 122.021004 -274.063599
592 150.000000 -259.807587
593 176.335602 -242.705093
594 200.739197 -222.943405
595 222.943405 -200.739197
596 242.705093 -176.335602
597 259.807587 -150.000000
598 274.063599 -122.021004
599 285.316986 -92.705101
600 293.444305 -62.373501
601 298.356598 -31.358500
GVRP_SET_SECTION 
 1 542  543 -1
 2  572  571 -1
 3  557  558 -1
 4  587  586 -1
 5  9  2  3  4  5  6  7  8  10  11  12  13  14  15  16  17  18  19  20  21  61  67  68  69  70  71 -1
 6  549  489  548  550 -1
 7  564  504  563  565 -1
 8  579  519  578  580 -1
 9  594  593 -1
 10  283  281  282  284  343 -1
 11  268  208  266  267  269  270  328 -1
 12  358  298  357  359  417  418  419 -1
 13  313  253  254  312  314  373  374 -1
 14  305  244  245  304  306  364  365 -1
 15  320  260  319  321  379  380 -1
 16  351  291  350  352  411  412 -1
 17  568  508  567  569 -1
 18  583  523  582  584 -1
 19  335  275  334  336  395 -1
 20  553  552 -1
 21  598 -1
 22  174  114  115  171  172  173  175  176  177  234  235 -1
 23  157  96  97  98  99  154  155  156  158  159  217 -1
 24  545  546 -1
 25  560  561 -1
 26  575  515  574  576 -1
 27  590  530  589  591 -1
 28  142  139  140  141  143  144  145 -1
 29  189  187  188  190  191  249 -1
 30  369  309  368  370 -1
 31  384  324  325  383  385 -1
 32  399  339  340  398  400 -1
 33  407  347  406  408 -1
 34  391  330  331  390  392 -1
 35  182  183  184  240  241  242  243 -1
 36  435  375  434  436 -1
 37  476  416  475  477 -1
 38  480  420  479  481 -1
 39  196  136  194  195  197  198  255  256 -1
 40  228  167  168  169  227  229  287  288 -1
 41  487  486  488  547 -1
 42  491  490  492  551 -1
 43  502  501  503  562 -1
 44  506  505  507  566 -1
 45  517  516  518  577 -1
 46  521  520  522  581 -1
 47  525  524  526  585 -1
 48  532  531  533  592 -1
 49  105  100  101  102  103  104  106  107  108  109  110  166 -1
 50  423  363  422  424 -1
 51  438  378  437  439 -1
 52  150  91  147  148  149  151  152  153  209  210  211 -1
 53  510  450  509  511  570 -1
 54  454  453  455 -1
 55  387  326  327  386  388 -1
 56  402  341  342  401  403  462 -1
 57  263  261  262  264  323 -1
 58  272  271  273  332 -1
 59  278  276  277  279  338 -1
 60  294  292  293  295  353  354 -1
 61  470  410  469  471 -1
 62  555 -1
 63  596 -1
 64  600 -1
 65  33  22  23  24  25  26  27  28  29  30  31  32  34  35  36  37  38  39  40  41  42  92  93  94  95 -1
 66  302  303  361  362  421 -1
 67  316  315  317  376  377 -1
 68  414  413  415 -1
 69  238  178  236  237  239  297 -1
 70  425  426 -1
 71  433  432 -1
 72  440  441 -1
 73  478 -1
 74  120  62  63  64  116  117  118  119  121  179  180  181 -1
 75  77  73  74  75  76  78  79  80  81  137  138 -1
 76  345  285  344  346  405 -1
 77  125  65  66  122  123  124  126  127  128  185  186 -1
 78  132  72  129  130  131  133  134  135  192  193 -1
 79  367  307  366 -1
 80  371  311  372 -1
 81  382  322  381 -1
 82  389  329 -1
 83  397  337  396 -1
 84  52  43  44  45  46  47  48  49  50  51  53  54  55  56  57  58  59  60  111  112  113 -1
 85  86  82  83  84  85  87  88  89  90  146 -1
 86  528  468  527  529  588 -1
 87  205  203  204  206  207  265 -1
 88  214  212  213  215  216  274 -1
 89  220  218  219  221  222  280 -1
 90  247  246  248  308 -1
 91  251  250  252  310 -1
 92  258  257  259  318 -1
 93  300  299  301  360 -1
 94  464  404  463  465 -1
 95  484  483  485  544 -1
 96  494  493  495  554 -1
 97  496  497  556 -1
 98  499  498  500  559 -1
 99  513  512  514  573 -1
 100  535  534  536  595 -1
 101  537  538  597 -1
 102  539  540  599 -1
 103  541  482  601 -1
 104  225  223  224  226  286 -1
 105  231  170  230  232  233  290 -1
 106  349  289  348  409 -1
 107  356  296  355 -1
 108  393  333  394 -1
 109  428  427  429 -1
 110  430  431 -1
 111  443  442  444 -1
 112  445  446 -1
 113  448  447  449 -1
 114  452  451 -1
 115  456  457 -1
 116  458  459 -1
 117  460  461 -1
 118  466  467 -1
 119  473  472  474 -1
 120  162  160  161  163  164  165 -1
 121  200  199  201  202 -1
 DEMAND_SECTION
 1 40 
 2 60 
 3 20 
 4 40 
 5 520 
 6 60 
 7 100 
 8 100 
 9 20 
 10 110 
 11 150 
 12 110 
 13 90 
 14 130 
 15 160 
 16 160 
 17 100 
 18 100 
 19 130 
 20 40 
 21 10 
 22 230 
 23 210 
 24 20 
 25 40 
 26 100 
 27 60 
 28 150 
 29 120 
 30 60 
 31 110 
 32 130 
 33 100 
 34 110 
 35 150 
 36 100 
 37 100 
 38 100 
 39 180 
 40 200 
 41 100 
 42 100 
 43 60 
 44 60 
 45 60 
 46 60 
 47 60 
 48 100 
 49 220 
 50 100 
 51 60 
 52 230 
 53 70 
 54 50 
 55 110 
 56 80 
 57 110 
 58 100 
 59 90 
 60 100 
 61 60 
 62 30 
 63 30 
 64 30 
 65 490 
 66 70 
 67 110 
 68 50 
 69 100 
 70 20 
 71 40 
 72 40 
 73 10 
 74 260 
 75 190 
 76 70 
 77 190 
 78 200 
 79 70 
 80 90 
 81 30 
 82 20 
 83 50 
 84 450 
 85 180 
 86 130 
 87 120 
 88 120 
 89 120 
 90 100 
 91 80 
 92 60 
 93 100 
 94 100 
 95 100 
 96 60 
 97 70 
 98 100 
 99 60 
 100 100 
 101 30 
 102 90 
 103 30 
 104 90 
 105 100 
 106 60 
 107 90 
 108 30 
 109 70 
 110 40 
 111 70 
 112 20 
 113 70 
 114 60 
 115 40 
 116 40 
 117 40 
 118 40 
 119 50 
 120 120 
 121 80 
EOF
